%%% static parameters %%%
timespan = 1;
Fact = [2];
Distr1 = [5];
Distr2 = [20];
Clients_N = [1000];
Demand_W = [15];
Lt0 = [4];
Lt1 = [4];
SS_ = [0.85];
DS_D = [20];
K = [200];
MA = [500];
%%% dynamic parameters %%%
lost_ratio_sales_ret_th = 0.004918352127499038;
lost_ratio_sales_ret_w = 61;
lost_ratio_sales_dis_th = 0.00042130170657003865;
lost_ratio_sales_dis_w = 16;
lost_ratio_sales_fac_th = 0.004914412355630127;
lost_ratio_sales_fac_w = 48;
stock_customer_MA_mean_relative_th = 0.7610705676702227;
stock_customer_MA_mean_relative_w = 98;
stock_distributor_MA_mean_relative_th = 0.3762778810904881;
stock_distributor_MA_mean_relative_w = 23;
stock_retailer_MA_mean_relative_th = 0.5470444356378255;
stock_retailer_MA_mean_relative_w = 42;
stock_factory_MA_mean_relative_th = 0.12871627438842004;
stock_factory_MA_mean_relative_w = 39;
